pr8_2
0 115 31 125 24 70 58 1 1 69 3 3 3 1 1 1 3 67 110 84 92 11 1 1 1 1 3 3 3 1 1 1 3 1 3 82 43 40 55 95 21 13 15 137 64 59 34 39 79 102 128 49 107 33 18 138 134 2 2 2 2 37 3 35 25 90 143 19 129 26 81 141 88 3 112 47 109 111 28 144 20 48 113 139 73 5 5 5 5 5 5 5 5 5 97 105 60 63 65 94 57 99 53 29 80 76 119 71 132 5 5 5 5 3 3 1 1 1 3 149 2 22 104 127 45 30 101 0 0 0 0 0 0 0 0 0 116 135 103 46 121 87 12 52 96 61 83 142 36 136 4 38 42 93 6 1 50 1 1 130 51 86 140 124 126 54 122 8 32 27 66 2 2 2 2 2 0 0 0 0 0 0 0 0 5 5 5 5 5 5 5 5 5 120 44 98 146 4 4 74 14 23 123 108 118 85 62 89 78 106 68 4 75 72 91 100 117 41 145 114 133 10 2 2 2 2 2 0 0 0 0 0 0 0 0 0 0 0 0 0 0 0